50
120
100
99
99
99
99
98
98
94
93
92
92
89
89
89
84
83
80
80
78
77
75
74
74
70
70
68
68
66
63
62
60
59
58
58
58
55
54
53
52
49
42
41
36
35
35
31
26
23
22
20
